%%% static parameters %%%
timespan = 1;
Clients_N = [4000];
Demand_W = [15];
Lt0 = [4];
Lt1 = [4];
SS_ = [0.85];
DS_D = [20];
K = [200];
MA = [500];
HC = [0.05];
%%% dynamic parameters %%%
lost_ratio_sales_ret_th = 0.0005661359392460755;
lost_ratio_sales_ret_w = 56;
lost_ratio_sales_dis_th = 0.000111841184149442;
lost_ratio_sales_dis_w = 58;
lost_ratio_sales_fac_th = 0.0008224032864891592;
lost_ratio_sales_fac_w = 42;
stock_customer_MA_mean_relative_th = 0.2922179826890602;
stock_customer_MA_mean_relative_w = 2;
stock_distributor_MA_mean_relative_th = 0.384533272746587;
stock_distributor_MA_mean_relative_w = 45;
stock_retailer_MA_mean_relative_th = 0.15754800264984659;
stock_retailer_MA_mean_relative_w = 39;
stock_factory_MA_mean_relative_th = 0.0031776744217760777;
stock_factory_MA_mean_relative_w = 69;
